250 150
1 81 12 23 36 38 41 44 52 75 83 90 117 126 127 128 135 136 151 153 154 158 168 170 176 178 184 197 198 211 212 219 222 224 225 234
2 41
3 27
4 95 12 15 23 36 38 41 44 52 67 68 70 74 75 83 90 117 125 126 127 128 135 136 142 151 153 154 158 162 168 170 176 178 179 183 184 197 198 204 205 208 211 212 219 222 224 225 226 234 239
5 46 23 36 178 197 225
6 69 12 23 36 38 136 158 176 178 197 219 224 225
7 45
8 39
9 32
10 98 11 12 15 23 36 38 40 41 42 44 52 55 64 65 67 68 70 74 75 80 83 87 90 91 97 98 108 109 110 111 117 125 126 127 128 130 135 136 142 151 153 154 158 162 168 170 172 174 176 178 179 183 184 190 193 197 198 201 204 205 207 208 211 212 213 219 222 223 224 225 226 233 234 239 242 246
11 41 12 15 21 23 31 32 34 36 38 40 41 42 44 51 52 55 56 59 64 65 67 68 70 74 75 80 83 87 90 91 97 98 102 108 109 110 111 117 119 125 126 127 128 130 132 135 136 142 151 153 154 158 159 162 168 170 172 174 176 178 179 183 184 187 189 190 193 194 197 198 201 204 205 207 208 211 212 213 219 222 223 224 225 226 233 234 236 239 242 246 248
12 46 15 19 21 23 26 29 31 32 34 36 38 40 41 42 44 48 50 51 52 55 56 58 59 61 62 64 65 67 68 69 70 74 75 76 78 80 83 87 88 89 90 91 92 94 97 98 102 103 106 108 109 110 111 115 117 118 119 120 125 126 127 128 129 130 132 133 135 136 139 141 142 149 150 151 152 153 154 158 159 160 162 164 168 169 170 171 172 174 176 178 179 183 184 185 187 189 190 192 193 194 196 197 198 201 204 205 207 208 209 210 211 212 213 217 219 221 222 223 224 225 226 229 230 233 234 236 239 240 241 242 245 246 247 248 250
13 100
14 86
15 84 19 21 23 26 31 32 34 36 38 40 41 42 44 48 51 52 55 56 59 61 64 65 67 68 70 74 75 76 78 80 83 87 89 90 91 92 97 98 102 106 108 109 110 111 117 119 125 126 127 128 130 132 133 135 136 139 142 151 153 154 158 159 162 168 170 171 172 174 176 178 179 183 184 185 187 189 190 193 194 197 198 201 204 205 207 208 211 212 213 219 222 223 224 225 226 233 234 236 239 242 245 246 248
16 39
17 67
18 34
19 92 23 36 38 41 44 52 67 68 70 74 75 83 90 110 117 125 126 127 128 135 136 142 151 153 154 158 162 168 170 176 178 179 183 184 190 197 198 204 205 208 211 212 219 222 224 225 226 234 239 246
20 59
21 43 23 36 38 40 41 44 52 55 67 68 70 74 75 83 87 90 91 98 109 110 111 117 125 126 127 128 130 135 136 142 151 153 154 158 162 168 170 172 174 176 178 179 183 184 190 193 197 198 201 204 205 207 208 211 212 213 219 222 223 224 225 226 233 234 239 242 246
22 21
23 56 26 29 31 32 34 36 38 40 41 42 44 48 50 51 52 55 56 58 59 61 62 64 65 67 68 69 70 74 75 76 78 80 83 87 88 89 90 91 92 94 97 98 102 103 106 108 109 110 111 115 117 118 119 120 125 126 127 128 129 130 132 133 135 136 139 141 142 149 150 151 152 153 154 158 159 160 162 164 168 169 170 171 172 174 176 178 179 183 184 185 187 189 190 192 193 194 196 197 198 201 204 205 207 208 209 210 211 212 213 217 219 221 222 223 224 225 226 229 230 233 234 236 239 240 241 242 245 246 247 248 250
24 88
25 26
26 35 36 38 41 44 52 67 68 70 74 75 83 90 91 109 110 111 117 125 126 127 128 130 135 136 142 151 153 154 158 162 168 170 176 178 179 183 184 190 193 197 198 204 205 208 211 212 219 222 224 225 226 233 234 239 242 246
27 51
28 22
29 100 36 38 117 128 136 158 170 176 178 197 211 212 219 224 225
30 96
31 49 36 38 40 41 44 52 67 68 70 74 75 83 87 90 91 98 109 110 111 117 125 126 127 128 130 135 136 142 151 153 154 158 162 168 170 176 178 179 183 184 190 193 197 198 201 204 205 207 208 211 212 219 222 223 224 225 226 233 234 239 242 246
32 95 36 38 40 41 44 52 55 67 68 70 74 75 83 87 90 91 98 109 110 111 117 125 126 127 128 130 135 136 142 151 153 154 158 162 168 170 172 174 176 178 179 183 184 190 193 197 198 201 204 205 207 208 211 212 213 219 222 223 224 225 226 233 234 239 242 246
33 38
34 62 36 38 40 41 44 52 67 68 70 74 75 83 87 90 91 98 109 110 111 117 125 126 127 128 130 135 136 142 151 153 154 158 162 168 170 172 174 176 178 179 183 184 190 193 197 198 201 204 205 207 208 211 212 213 219 222 223 224 225 226 233 234 239 242 246
35 63
36 97 38 40 41 42 44 48 50 51 52 55 56 58 59 61 62 64 65 67 68 69 70 74 75 76 78 80 83 87 88 89 90 91 92 94 97 98 102 103 105 106 108 109 110 111 115 117 118 119 120 125 126 127 128 129 130 132 133 135 136 139 141 142 146 149 150 151 152 153 154 158 159 160 162 164 166 168 169 170 171 172 174 175 176 178 179 183 184 185 187 189 190 192 193 194 196 197 198 201 204 205 207 208 209 210 211 212 213 217 219 221 222 223 224 225 226 229 230 233 234 236 238 239 240 241 242 245 246 247 248 250
37 42
38 62 40 41 42 44 48 50 51 52 55 56 58 59 61 62 64 65 67 68 69 70 74 75 76 78 80 83 87 88 89 90 91 92 94 97 98 102 103 106 108 109 110 111 117 118 119 120 125 126 127 128 129 130 132 133 135 136 139 141 142 149 150 151 153 154 158 159 160 162 164 168 169 170 171 172 174 176 178 179 183 184 185 187 189 190 193 194 196 197 198 201 204 205 207 208 209 210 211 212 213 217 219 221 222 223 224 225 226 229 230 233 234 236 239 240 241 242 245 246 247 248 250
39 100
40 43 41 42 44 51 52 55 56 64 65 67 68 70 74 75 80 83 87 90 91 97 98 108 109 110 111 117 119 125 126 127 128 130 132 135 136 142 151 153 154 158 159 162 168 170 172 174 176 178 179 183 184 187 190 193 197 198 201 204 205 207 208 211 212 213 219 222 223 224 225 226 233 234 236 239 242 246 248
41 44 42 44 48 51 52 55 56 58 59 61 62 64 65 67 68 70 74 75 76 78 80 83 87 88 89 90 91 92 97 98 102 103 106 108 109 110 111 117 119 120 125 126 127 128 130 132 133 135 136 139 141 142 149 150 151 153 154 158 159 160 162 164 168 170 171 172 174 176 178 179 183 184 185 187 189 190 193 194 197 198 201 204 205 207 208 211 212 213 219 221 222 223 224 225 226 233 234 236 239 241 242 245 246 247 248 250
42 77 44 52 55 56 64 65 67 68 70 74 75 80 83 87 90 91 97 98 108 109 110 111 117 119 125 126 127 128 130 135 136 142 151 153 154 158 162 168 170 172 174 176 178 179 183 184 190 193 197 198 201 204 205 207 208 211 212 213 219 222 223 224 225 226 233 234 239 242 246
43 97
44 94 48 51 52 55 56 58 59 61 62 64 65 67 68 70 74 75 76 78 80 83 87 88 89 90 91 92 97 98 102 103 106 108 109 110 111 117 119 120 125 126 127 128 130 132 133 135 136 139 141 142 149 150 151 153 154 158 159 160 162 164 168 170 171 172 174 176 178 179 183 184 185 187 189 190 193 194 197 198 201 204 205 207 208 211 212 213 219 221 222 223 224 225 226 233 234 236 239 241 242 245 246 247 248
45 68
46 23
47 50
48 36 52 67 68 70 74 75 83 90 91 109 110 111 117 125 126 127 128 130 135 136 142 151 153 154 158 162 168 170 176 178 179 183 184 190 193 197 198 204 205 208 211 212 219 222 224 225 226 233 234 239 242 246
49 89
50 58 117 136 158 170 176 178 197 211 219 224 225
51 97 52 55 64 67 68 70 74 75 83 87 90 91 98 109 110 111 117 125 126 127 128 130 135 136 142 151 153 154 158 162 168 170 172 174 176 178 179 183 184 190 193 197 198 201 204 205 207 208 211 212 213 219 222 223 224 225 226 233 234 239 242 246
52 27 55 56 58 59 61 62 64 65 67 68 70 74 75 76 78 80 83 87 88 89 90 91 92 97 98 102 103 106 108 109 110 111 117 119 120 125 126 127 128 130 132 133 135 136 139 141 142 149 150 151 153 154 158 159 160 162 164 168 170 171 172 174 176 178 179 183 184 185 187 189 190 193 194 197 198 201 204 205 207 208 211 212 213 219 221 222 223 224 225 226 233 234 236 239 241 242 245 246 247 248 250
53 64
54 65
55 54 56 64 65 67 68 70 74 75 80 83 87 90 91 97 98 108 109 110 111 117 119 125 126 127 128 130 135 136 142 151 153 154 158 162 168 170 172 174 176 178 179 183 184 187 190 193 197 198 201 204 205 207 208 211 212 213 219 222 223 224 225 226 233 234 239 242 246
56 58 64 65 67 68 70 74 75 83 87 90 91 97 98 108 109 110 111 117 125 126 127 128 130 135 136 142 151 153 154 158 162 168 170 172 174 176 178 179 183 184 190 193 197 198 201 204 205 207 208 211 212 213 219 222 223 224 225 226 233 234 239 242 246
57 24
58 35 67 75 83 90 117 126 127 128 135 136 151 153 154 158 168 170 176 178 179 183 184 197 198 211 212 219 222 224 225 234
59 33 67 68 70 74 75 83 87 90 91 109 110 111 117 125 126 127 128 130 135 136 142 151 153 154 158 162 168 170 176 178 179 183 184 190 193 197 198 201 204 205 208 211 212 219 222 223 224 225 226 233 234 239 242 246
60 63
61 32 67 68 70 74 75 83 87 90 91 109 110 111 117 125 126 127 128 130 135 136 142 151 153 154 158 162 168 170 176 178 179 183 184 190 193 197 198 204 205 208 211 212 219 222 223 224 225 226 233 234 239 242 246
62 50 67 75 83 90 117 126 127 128 135 136 151 153 154 158 168 170 176 178 179 183 184 197 198 204 211 212 219 222 224 225 234 239
63 58
64 90 65 67 68 70 74 75 80 83 87 90 91 97 98 108 109 110 111 117 119 125 126 127 128 130 135 136 142 151 153 154 158 162 168 170 172 174 176 178 179 183 184 187 190 193 197 198 201 204 205 207 208 211 212 213 219 222 223 224 225 226 233 234 239 242 246
65 44 67 68 70 74 75 80 83 87 90 91 97 98 108 109 110 111 117 119 125 126 127 128 130 135 136 142 151 153 154 158 162 168 170 172 174 176 178 179 183 184 190 193 197 198 201 204 205 207 208 211 212 213 219 222 223 224 225 226 233 234 239 242 246
66 50
67 48 68 70 74 75 76 78 80 83 87 88 89 90 91 92 97 98 102 106 108 109 110 111 117 119 120 125 126 127 128 130 132 133 135 136 139 142 149 150 151 153 154 158 159 162 164 168 170 171 172 174 176 178 179 183 184 185 187 189 190 193 194 197 198 201 204 205 207 208 211 212 213 219 221 222 223 224 225 226 233 234 236 239 241 242 245 246 247 248
68 21 70 74 75 76 78 80 83 87 89 90 91 92 97 98 102 106 108 109 110 111 117 119 125 126 127 128 130 132 133 135 136 139 142 151 153 154 158 159 162 168 170 171 172 174 176 178 179 183 184 185 187 189 190 193 194 197 198 201 204 205 207 208 211 212 213 219 222 223 224 225 226 233 234 236 239 242 245 246 248
69 72 83 117 128 136 158 170 176 178 197 198 211 212 219 222 224 225
70 75 74 75 76 78 80 83 87 89 90 91 92 97 98 102 106 108 109 110 111 117 119 125 126 127 128 130 132 133 135 136 139 142 151 153 154 158 159 162 168 170 171 172 174 176 178 179 183 184 185 187 189 190 193 194 197 198 201 204 205 207 208 211 212 213 219 222 223 224 225 226 233 234 236 239 242 245 246 248
71 21
72 74
73 28
74 95 75 76 78 80 83 87 89 90 91 92 97 98 102 106 108 109 110 111 117 119 125 126 127 128 130 132 133 135 136 139 142 151 153 154 158 159 162 168 170 171 172 174 176 178 179 183 184 185 187 189 190 193 194 197 198 201 204 205 207 208 211 212 213 219 222 223 224 225 226 233 234 236 239 242 245 246 248
75 77 76 78 80 83 87 88 89 90 91 92 97 98 102 106 108 109 110 111 117 119 120 125 126 127 128 130 132 133 135 136 139 142 149 150 151 153 154 158 159 162 164 168 170 171 172 174 176 178 179 183 184 185 187 189 190 193 194 197 198 201 204 205 207 208 211 212 213 219 221 222 223 224 225 226 233 234 236 239 241 242 245 246 247 248
76 69 83 87 90 91 109 110 111 117 125 126 127 128 130 135 136 142 151 153 154 158 162 168 170 176 178 179 183 184 190 193 197 198 204 205 208 211 212 219 222 223 224 225 226 233 234 239 242 246
77 96
78 24 83 90 109 110 111 117 125 126 127 128 135 136 142 151 153 154 158 162 168 170 176 178 179 183 184 190 193 197 198 204 205 208 211 212 219 222 224 225 226 234 239 246
79 57
80 85 83 87 90 91 97 98 108 109 110 111 117 125 126 127 128 130 135 136 142 151 153 154 158 162 168 170 172 174 176 178 179 183 184 190 193 197 198 201 204 205 207 208 211 212 213 219 222 223 224 225 226 233 234 239 242 246
81 72
82 96 178
83 50 87 88 89 90 91 92 94 97 98 102 103 106 108 109 110 111 117 118 119 120 125 126 127 128 129 130 132 133 135 136 139 141 142 149 150 151 153 154 158 159 160 162 164 168 169 170 171 172 174 176 178 179 183 184 185 187 189 190 193 194 197 198 201 204 205 207 208 209 211 212 213 217 219 221 222 223 224 225 226 233 234 236 239 241 242 245 246 247 248 250
84 83
85 65
86 62
87 99 90 91 97 98 102 108 109 110 111 117 119 125 126 127 128 130 132 135 136 142 151 153 154 158 159 162 168 170 172 174 176 178 179 183 184 187 189 190 193 194 197 198 201 204 205 207 208 211 212 213 219 222 223 224 225 226 233 234 236 239 242 246 248
88 93 90 117 125 126 127 128 135 136 151 153 154 158 168 170 176 178 179 183 184 197 198 204 211 212 219 222 224 225 234 239
89 23 90 117 125 126 127 128 135 136 142 151 153 154 158 162 168 170 176 178 179 183 184 197 198 204 205 208 211 212 219 222 224 225 226 234 239
90 77 91 92 97 98 102 106 108 109 110 111 117 119 120 125 126 127 128 130 132 133 135 136 139 142 149 150 151 153 154 158 159 162 164 168 170 171 172 174 176 178 179 183 184 185 187 189 190 193 194 197 198 201 204 205 207 208 211 212 213 219 221 222 223 224 225 226 233 234 236 239 241 242 245 246 247 248
91 94 97 98 102 106 108 109 110 111 117 119 125 126 127 128 130 132 135 136 139 142 151 153 154 158 159 162 168 170 172 174 176 178 179 183 184 187 189 190 193 194 197 198 201 204 205 207 208 211 212 213 219 222 223 224 225 226 233 234 236 239 242 246 248
92 31 110 117 125 126 127 128 135 136 142 151 153 154 158 162 168 170 176 178 179 183 184 190 197 198 204 205 208 211 212 219 222 224 225 226 234 239 246
93 50
94 33 117 128 136 158 170 176 178 197 198 211 212 219 222 224 225
95 79
96 73
97 23 98 108 109 110 111 117 119 125 126 127 128 130 135 136 142 151 153 154 158 162 168 170 172 174 176 178 179 183 184 190 193 197 198 201 204 205 207 208 211 212 213 219 222 223 224 225 226 233 234 239 242 246
98 55 108 109 110 111 117 119 125 126 127 128 130 132 135 136 142 151 153 154 158 159 162 168 170 172 174 176 178 179 183 184 187 190 193 197 198 201 204 205 207 208 211 212 213 219 222 223 224 225 226 233 234 236 239 242 246 248
99 44
100 78
101 84
102 66 109 110 111 117 125 126 127 128 130 135 136 142 151 153 154 158 162 168 170 176 178 179 183 184 190 193 197 198 201 204 205 208 211 212 219 222 223 224 225 226 233 234 239 242 246
103 31 117 126 127 128 135 136 151 153 154 158 168 170 176 178 184 197 198 211 212 219 222 224 225
104 59
105 97 178 197
106 95 109 110 111 117 125 126 127 128 130 135 136 142 151 153 154 158 162 168 170 176 178 179 183 184 190 193 197 198 204 205 208 211 212 219 222 224 225 226 233 234 239 242 246
107 22
108 76 109 110 111 117 119 125 126 127 128 130 135 136 142 151 153 154 158 162 168 170 172 174 176 178 179 183 184 190 193 197 198 201 204 205 207 208 211 212 213 219 222 223 224 225 226 233 234 239 242 246
109 90 110 111 117 119 125 126 127 128 130 132 135 136 139 142 151 153 154 158 159 162 168 170 172 174 176 178 179 183 184 187 189 190 193 194 197 198 201 204 205 207 208 211 212 213 219 222 223 224 225 226 233 234 236 239 242 246 248
110 66 111 117 119 125 126 127 128 130 132 133 135 136 139 142 151 153 154 158 159 162 168 170 172 174 176 178 179 183 184 187 189 190 193 194 197 198 201 204 205 207 208 211 212 213 219 222 223 224 225 226 233 234 236 239 242 246 248
111 29 117 119 125 126 127 128 130 132 133 135 136 139 142 151 153 154 158 159 162 168 170 172 174 176 178 179 183 184 187 189 190 193 194 197 198 201 204 205 207 208 211 212 213 219 222 223 224 225 226 233 234 236 239 242 246 248
112 100
113 90
114 92
115 50 136 176 178 197 224 225
116 49
117 47 118 119 120 125 126 127 128 129 130 132 133 135 136 139 141 142 149 150 151 153 154 158 159 160 162 164 168 169 170 171 172 174 176 178 179 183 184 185 187 189 190 193 194 197 198 201 204 205 207 208 209 211 212 213 217 219 221 222 223 224 225 226 229 230 233 234 236 239 241 242 245 246 247 248 250
118 43 128 136 158 170 176 178 197 198 211 212 219 222 224 225
119 37 125 126 127 128 130 135 136 142 151 153 154 158 162 168 170 172 174 176 178 179 183 184 190 193 197 198 201 204 205 207 208 211 212 213 219 222 223 224 225 226 233 234 239 242 246
120 40 126 127 128 135 136 151 153 154 158 168 170 176 178 179 183 184 197 198 211 212 219 222 224 225 234 239
121 60
122 52
123 54
124 99
125 34 126 127 128 130 132 133 135 136 139 142 151 153 154 158 159 162 168 170 171 172 174 176 178 179 183 184 185 187 189 190 193 194 197 198 201 204 205 207 208 211 212 213 219 222 223 224 225 226 233 234 236 239 242 245 246 248
126 46 127 128 130 132 133 135 136 139 141 142 149 150 151 153 154 158 159 160 162 164 168 170 171 172 174 176 178 179 183 184 185 187 189 190 193 194 197 198 201 204 205 207 208 211 212 213 219 221 222 223 224 225 226 233 234 236 239 241 242 245 246 247 248 250
127 88 128 130 132 133 135 136 139 141 142 149 150 151 153 154 158 159 160 162 164 168 170 171 172 174 176 178 179 183 184 185 187 189 190 193 194 197 198 201 204 205 207 208 211 212 213 219 221 222 223 224 225 226 233 234 236 239 241 242 245 246 247 248 250
128 97 129 130 132 133 135 136 139 141 142 149 150 151 153 154 158 159 160 162 164 168 169 170 171 172 174 176 178 179 183 184 185 187 189 190 193 194 197 198 201 204 205 207 208 209 211 212 213 217 219 221 222 223 224 225 226 229 233 234 236 239 241 242 245 246 247 248 250
129 85 136 158 170 176 178 197 198 211 212 219 222 224 225
130 39 132 135 136 139 142 151 153 154 158 159 162 168 170 172 174 176 178 179 183 184 187 189 190 193 194 197 198 201 204 205 207 208 211 212 213 219 222 223 224 225 226 233 234 236 239 242 246 248
131 32
132 51 135 136 142 151 153 154 158 162 168 170 172 174 176 178 179 183 184 190 193 197 198 201 204 205 207 208 211 212 219 222 223 224 225 226 233 234 239 242 246
133 95 135 136 142 151 153 154 158 162 168 170 176 178 179 183 184 190 193 197 198 204 205 208 211 212 219 222 224 225 226 234 239 246
134 54
135 99 136 139 142 149 150 151 153 154 158 159 162 164 168 170 171 172 174 176 178 179 183 184 185 187 189 190 193 194 197 198 201 204 205 207 208 211 212 213 219 221 222 223 224 225 226 233 234 236 239 241 242 245 246 247 248
136 86 139 141 142 149 150 151 153 154 158 159 160 162 164 168 169 170 171 172 174 176 178 179 183 184 185 187 189 190 193 194 196 197 198 201 204 205 207 208 209 210 211 212 213 217 219 221 222 223 224 225 226 229 230 233 234 236 239 240 241 242 245 246 247 248 250
137 48
138 90
139 28 142 151 153 154 158 162 168 170 176 178 179 183 184 190 193 197 198 204 205 208 211 212 219 222 224 225 226 233 234 239 246
140 25
141 86 151 153 154 158 168 170 176 178 184 197 198 211 212 219 222 224 225
142 39 151 153 154 158 159 162 168 170 171 172 174 176 178 179 183 184 185 187 189 190 193 194 197 198 201 204 205 207 208 211 212 213 219 222 223 224 225 226 233 234 236 239 242 245 246 248
143 74
144 26
145 38
146 60 178 197 225
147 41
148 67
149 80 151 153 154 158 168 170 176 178 179 183 184 197 198 204 211 212 219 222 224 225 234 239
150 33 151 153 154 158 168 170 176 178 179 183 184 197 198 211 212 219 222 224 225 234
151 37 153 154 158 159 160 162 164 168 169 170 171 172 174 176 178 179 183 184 185 187 189 190 193 194 197 198 201 204 205 207 208 211 212 213 219 221 222 223 224 225 226 233 234 236 239 241 242 245 246 247 248 250
152 62 178 197 224 225
153 71 154 158 159 160 162 164 168 170 171 172 174 176 178 179 183 184 185 187 189 190 193 194 197 198 201 204 205 207 208 211 212 213 219 221 222 223 224 225 226 233 234 236 239 241 242 245 246 247 248 250
154 87 158 159 160 162 164 168 169 170 171 172 174 176 178 179 183 184 185 187 189 190 193 194 197 198 201 204 205 207 208 211 212 213 219 221 222 223 224 225 226 233 234 236 239 241 242 245 246 247 248 250
155 31
156 72
157 84
158 84 159 160 162 164 168 169 170 171 172 174 176 178 179 183 184 185 187 189 190 193 194 196 197 198 201 204 205 207 208 209 210 211 212 213 217 219 221 222 223 224 225 226 229 230 233 234 236 239 240 241 242 245 246 247 248 250
159 53 162 168 170 176 178 179 183 184 190 193 197 198 201 204 205 207 208 211 212 219 222 223 224 225 226 233 234 239 242 246
160 85 168 170 176 178 184 197 198 211 212 219 222 224 225
161 32
162 24 168 170 171 172 174 176 178 179 183 184 185 187 189 190 193 194 197 198 201 204 205 207 208 211 212 213 219 222 223 224 225 226 233 234 236 239 242 245 246 248
163 88
164 54 168 170 176 178 179 183 184 197 198 211 212 219 222 224 225 234 239
165 28
166 36 178 197 225
167 91
168 61 170 171 172 174 176 178 179 183 184 185 187 189 190 193 194 197 198 201 204 205 207 208 211 212 213 219 221 222 223 224 225 226 233 234 236 239 241 242 245 246 247 248 250
169 29 170 176 178 184 197 198 211 212 219 222 224 225
170 68 171 172 174 176 178 179 183 184 185 187 189 190 193 194 197 198 201 204 205 207 208 209 211 212 213 217 219 221 222 223 224 225 226 229 230 233 234 236 239 240 241 242 245 246 247 248 250
171 69 176 178 179 183 184 197 198 204 205 208 211 212 219 222 224 225 226 234 239
172 35 174 176 178 179 183 184 187 190 193 197 198 201 204 205 207 208 211 212 213 219 222 223 224 225 226 233 234 239 242 246 248
173 30
174 88 176 178 179 183 184 187 190 193 197 198 201 204 205 207 208 211 212 213 219 222 223 224 225 226 233 234 239 242 246 248
175 85 178 197 225
176 87 178 179 183 184 185 187 189 190 193 194 196 197 198 201 204 205 207 208 209 210 211 212 213 217 219 221 222 223 224 225 226 229 230 233 234 236 239 240 241 242 245 246 247 248 250
177 70
178 70 179 183 184 185 187 189 190 192 193 194 196 197 198 201 204 205 207 208 209 210 211 212 213 217 219 221 222 223 224 225 226 229 230 233 234 236 238 239 240 241 242 245 246 247 248 250
179 59 183 184 185 187 189 190 193 194 197 198 201 204 205 207 208 211 212 213 219 221 222 223 224 225 226 233 234 236 239 241 242 245 246 247 248
180 26
181 73
182 27
183 44 184 185 187 189 190 193 194 197 198 201 204 205 207 208 211 212 213 219 221 222 223 224 225 226 233 234 236 239 241 242 245 246 247 248
184 27 185 187 189 190 193 194 197 198 201 204 205 207 208 209 211 212 213 219 221 222 223 224 225 226 233 234 236 239 241 242 245 246 247 248 250
185 35 190 197 198 204 205 208 211 212 219 222 224 225 226 234 239
186 38
187 65 190 193 197 198 201 204 205 207 208 211 212 213 219 222 223 224 225 226 233 234 239 242 246
188 21
189 69 190 193 197 198 201 204 205 208 211 212 219 222 223 224 225 226 233 234 239 242 246
190 59 193 194 197 198 201 204 205 207 208 211 212 213 219 222 223 224 225 226 233 234 236 239 242 246 248
191 35
192 70 197 224 225
193 40 194 197 198 201 204 205 207 208 211 212 213 219 222 223 224 225 226 233 234 236 239 242 246 248
194 84 197 198 201 204 205 208 211 212 219 222 223 224 225 226 233 234 239 242 246
195 42
196 92 197 219 224 225
197 24 198 201 204 205 207 208 209 210 211 212 213 217 219 221 222 223 224 225 226 229 230 233 234 236 238 239 240 241 242 245 246 247 248 250
198 46 201 204 205 207 208 209 211 212 213 217 219 221 222 223 224 225 226 233 234 236 239 241 242 245 246 247 248 250
199 78
200 60
201 76 204 205 207 208 211 212 213 219 222 223 224 225 226 233 234 236 239 242 246 248
202 43
203 49
204 79 205 207 208 211 212 213 219 222 223 224 225 226 233 234 236 239 242 245 246 247 248
205 65 207 208 211 212 213 219 222 223 224 225 226 233 234 236 239 242 245 246 248
206 24
207 28 208 211 212 213 219 222 223 224 225 226 233 234 236 239 242 246 248
208 43 211 212 213 219 222 223 224 225 226 233 234 236 239 242 245 246 248
209 26 211 212 219 222 224 225
210 93 219 224 225
211 62 212 213 217 219 221 222 223 224 225 226 229 230 233 234 236 239 240 241 242 245 246 247 248 250
212 91 213 217 219 221 222 223 224 225 226 229 233 234 236 239 241 242 245 246 247 248 250
213 21 219 222 223 224 225 226 233 234 239 242 246 248
214 21
215 32
216 34
217 86 219 222 224 225
218 27
219 79 221 222 223 224 225 226 229 230 233 234 236 239 240 241 242 245 246 247 248 250
220 34
221 88 222 224 225 234
222 93 223 224 225 226 233 234 236 239 241 242 245 246 247 248 250
223 58 224 225 226 233 234 236 239 242 246 248
224 77 225 226 229 230 233 234 236 239 240 241 242 245 246 247 248 250
225 62 226 229 230 233 234 236 238 239 240 241 242 245 246 247 248 250
226 87 233 234 236 239 242 245 246 248
227 99
228 61
229 83
230 75
231 99
232 93
233 39 234 236 239 242 246 248
234 85 236 239 241 242 245 246 247 248
235 31
236 69 239 242 246
237 48
238 67
239 50 242 245 246 247 248
240 24
241 49
242 82 246 248
243 97
244 86
245 21
246 86 248
247 41
248 100
249 84
250 77
